10J3M/DAT/10J3MULX-10.dat
10 3
19.2741 4.3902
9.6414 3.1051
32.2869 5.6822
48.2206 6.9441
10.5035 3.2409
11.7322 3.4252
5.9367 2.4365
21.4219 4.6284
37.9159 6.1576
22.0648 4.6973
14.9025