10J3M/SOL/10J3MULX-10.sol
solution status: optimal solution found
objective value:                      115.81162893877
x#1#2                                               1 	(obj:0)
x#2#2                               0.999968070500334 	(obj:0)
x#3#1                               0.808572956273454 	(obj:0)
x#3#2                               0.191427043726546 	(obj:0)
x#4#1                               0.276312473452553 	(obj:0)
x#4#3                               0.723687526547447 	(obj:0)
x#5#3                                               1 	(obj:0)
x#6#1                                               1 	(obj:0)
x#7#2                                               1 	(obj:0)
x#8#2                               0.269608901966761 	(obj:0)
x#8#3                               0.730391098033239 	(obj:0)
x#9#1                                               1 	(obj:0)
x#10#1                              0.158102651481511 	(obj:0)
x#10#3                              0.841897348518489 	(obj:0)
z                                     115.81162893877 	(obj:1)
